33D32945 STP File, STP Format Version 1.0

SECTION Comment
Name    "Series B" 
Creator "A. M. Costa" 
Format  "Z.H. Fu and J. K. Hao"
Remark  "Sparse graph with random weights"
#TotalEdgeCost 1036
#BudgetFraction 10
END 

SECTION Graph 
Nodes 100 
Edges 200 
Root 1
Budget 103
HopLimit 9
E 1 60 7 
E 2 36 1 
E 3 25 2 
E 3 74 6 
E 3 98 7 
E 4 5 1 
E 4 7 2 
E 4 28 3 
E 4 38 8 
E 4 39 9 
E 4 76 9 
E 4 100 8 
E 5 10 1 
E 5 23 2 
E 5 41 2 
E 5 66 10 
E 5 87 1 
E 5 97 9 
E 6 7 6 
E 6 15 3 
E 6 95 7 
E 7 19 6 
E 7 21 4 
E 7 25 3 
E 7 34 9 
E 7 62 9 
E 7 63 6 
E 7 67 7 
E 7 79 10 
E 7 92 5 
E 8 24 6 
E 8 39 1 
E 8 45 8 
E 8 79 3 
E 8 92 10 
E 9 25 7 
E 9 28 9 
E 9 46 2 
E 9 59 5 
E 9 84 7 
E 10 40 5 
E 10 59 5 
E 10 82 8 
E 10 99 6 
E 11 19 7 
E 11 49 8 
E 11 52 1 
E 11 70 8 
E 11 72 7 
E 12 14 8 
E 12 50 8 
E 12 57 5 
E 12 100 5 
E 13 27 4 
E 13 42 3 
E 13 58 3 
E 13 88 5 
E 14 54 5 
E 15 31 9 
E 15 35 4 
E 15 40 9 
E 16 44 9 
E 16 56 5 
E 16 69 2 
E 16 71 2 
E 16 72 9 
E 16 84 4 
E 17 19 9 
E 17 29 8 
E 17 36 1 
E 17 55 1 
E 17 80 2 
E 18 36 4 
E 18 69 10 
E 19 24 6 
E 19 31 10 
E 20 73 3 
E 22 40 7 
E 22 59 6 
E 22 72 1 
E 22 80 1 
E 22 87 1 
E 23 29 2 
E 23 69 10 
E 23 85 6 
E 23 94 3 
E 24 51 8 
E 24 92 5 
E 24 98 8 
E 25 93 7 
E 26 56 3 
E 26 92 3 
E 26 94 2 
E 27 33 5 
E 27 48 1 
E 27 57 6 
E 27 58 7 
E 27 68 3 
E 27 92 10 
E 28 52 5 
E 28 95 5 
E 29 65 6 
E 29 77 4 
E 30 46 1 
E 30 62 6 
E 30 64 1 
E 30 70 9 
E 30 80 1 
E 30 83 3 
E 30 86 9 
E 30 89 5 
E 31 37 3 
E 31 70 3 
E 32 54 2 
E 32 65 3 
E 32 69 7 
E 33 39 2 
E 33 52 8 
E 33 53 1 
E 34 38 3 
E 34 80 1 
E 35 55 6 
E 35 56 10 
E 36 62 6 
E 36 95 9 
E 37 99 3 
E 38 45 9 
E 38 65 9 
E 38 98 2 
E 39 64 1 
E 40 91 10 
E 41 48 10 
E 41 90 7 
E 42 43 10 
E 42 47 1 
E 42 75 7 
E 43 56 1 
E 43 94 5 
E 44 47 10 
E 46 71 2 
E 46 79 7 
E 46 92 8 
E 49 73 10 
E 49 92 1 
E 49 99 10 
E 49 100 3 
E 50 95 2 
E 51 66 1 
E 51 68 1 
E 52 60 8 
E 52 62 9 
E 52 71 3 
E 52 88 6 
E 52 89 10 
E 52 97 2 
E 54 60 1 
E 54 69 3 
E 54 93 1 
E 55 69 2 
E 56 58 4 
E 56 68 9 
E 56 84 3 
E 56 98 7 
E 57 98 6 
E 59 79 6 
E 61 65 10 
E 63 66 6 
E 63 69 5 
E 65 84 2 
E 65 86 5 
E 66 70 7 
E 66 72 3 
E 66 74 4 
E 67 90 6 
E 67 97 6 
E 68 85 10 
E 68 95 8 
E 69 89 8 
E 69 95 1 
E 72 82 7 
E 72 86 3 
E 72 90 1 
E 72 91 9 
E 73 79 1 
E 74 79 3 
E 74 83 6 
E 74 88 1 
E 74 92 6 
E 75 95 10 
E 77 85 5 
E 78 82 6 
E 78 84 2 
E 78 95 7 
E 80 84 6 
E 81 88 3 
E 84 86 1 
E 86 92 7 
E 90 98 4 
E 96 97 2 
E 96 100 2 
END 

SECTION ProfitableVertices 
ProfitableVertices 25 
PV 1 20
PV 12 76
PV 13 47
PV 14 51
PV 16 21
PV 20 73
PV 23 47
PV 27 95
PV 32 49
PV 34 17
PV 35 50
PV 40 3
PV 46 85
PV 49 73
PV 51 37
PV 60 24
PV 61 86
PV 62 66
PV 63 84
PV 68 75
PV 72 73
PV 77 16
PV 86 82
PV 89 44
PV 91 5
END 

EOF 
